Cars = 1..200;
Options = 1..5;
Classes = 1..26;
sequenceMinCapacity = [0, 0, 0, 0, 0];
sequenceMaxCapacity = [1, 2, 1, 2, 1];
sequenceSize = [2, 3, 3, 5, 5];
numOrdered = [3, 4, 72, 8, 1, 10, 30, 3, 10, 5, 1, 6, 2, 1, 1, 3, 1, 1, 13, 15, 2, 1, 1, 1, 1, 4];
classHasOption = [| true, false,  true, false, false
                  | true, false, false,  true, false
                  |false,  true, false, false, false
                  |false,  true, false,  true, false
                  | true, false, false,  true,  true
                  | true,  true, false, false, false
                  |false, false,  true, false, false
                  | true,  true,  true,  true, false
                  |false, false, false, false,  true
                  |false,  true,  true, false, false
                  | true, false,  true, false,  true
                  | true,  true, false,  true, false
                  |false, false,  true, false,  true
                  | true,  true, false, false,  true
                  | true,  true,  true, false,  true
                  |false, false,  true,  true, false
                  | true, false, false, false,  true
                  |false, false, false,  true,  true
                  |false, false, false,  true, false
                  | true, false, false, false, false
                  |false,  true,  true,  true, false
                  | true, false,  true,  true, false
                  | true,  true, false,  true,  true
                  | true,  true,  true, false, false
                  |false, false,  true, false,  true
                  |false,  true, false, false, false|];
optionOrdering = [3, 2, 5, 1, 4];
